
n_res = 4;
rcap = [33, 35, 533, 560];
rtype = [1, 1, 2, 2];
n_tasks = 100;
modes =  [{1, 2, 3}, {4, 5, 6}, {7, 8, 9}, {10, 11, 12}, {13, 14, 15}, {16, 17, 18}, {19, 20, 21}, {22, 23, 24}, {25, 26, 27}, {28, 29, 30}, {31, 32, 33}, {34, 35, 36}, {37, 38, 39}, {40, 41, 42}, {43, 44, 45}, {46, 47, 48}, {49, 50, 51}, {52, 53, 54}, {55, 56, 57}, {58, 59, 60}, {61, 62, 63}, {64, 65, 66}, {67, 68, 69}, {70, 71, 72}, {73, 74, 75}, {76, 77, 78}, {79, 80, 81}, {82, 83, 84}, {85, 86, 87}, {88, 89, 90}, {91, 92, 93}, {94, 95, 96}, {97, 98, 99}, {100, 101, 102}, {103, 104, 105}, {106, 107, 108}, {109, 110, 111}, {112, 113, 114}, {115, 116, 117}, {118, 119, 120}, {121, 122, 123}, {124, 125, 126}, {127, 128, 129}, {130, 131, 132}, {133, 134, 135}, {136, 137, 138}, {139, 140, 141}, {142, 143, 144}, {145, 146, 147}, {148, 149, 150}, {151, 152, 153}, {154, 155, 156}, {157, 158, 159}, {160, 161, 162}, {163, 164, 165}, {166, 167, 168}, {169, 170, 171}, {172, 173, 174}, {175, 176, 177}, {178, 179, 180}, {181, 182, 183}, {184, 185, 186}, {187, 188, 189}, {190, 191, 192}, {193, 194, 195}, {196, 197, 198}, {199, 200, 201}, {202, 203, 204}, {205, 206, 207}, {208, 209, 210}, {211, 212, 213}, {214, 215, 216}, {217, 218, 219}, {220, 221, 222}, {223, 224, 225}, {226, 227, 228}, {229, 230, 231}, {232, 233, 234}, {235, 236, 237}, {238, 239, 240}, {241, 242, 243}, {244, 245, 246}, {247, 248, 249}, {250, 251, 252}, {253, 254, 255}, {256, 257, 258}, {259, 260, 261}, {262, 263, 264}, {265, 266, 267}, {268, 269, 270}, {271, 272, 273}, {274, 275, 276}, {277, 278, 279}, {280, 281, 282}, {283, 284, 285}, {286, 287, 288}, {289, 290, 291}, {292, 293, 294}, {295, 296, 297}, {298, 299, 300}];
succ =  [{29, 27, 22, 18, 15, 10}, {27, 26, 25, 17, 15, 14}, {22, 15, 9}, {15, 13, 9}, {29, 17, 16, 14}, {29, 22, 17, 11}, {13, 10}, {31, 30, 27, 26, 19, 15}, {27, 23, 18, 17}, {42, 34, 33, 31, 30, 26, 23, 19}, {32, 31, 30, 27, 24, 15}, {33, 32, 28, 24, 22, 16}, {35, 34, 26, 24, 23, 17}, {37, 34, 33, 32, 24, 23, 22}, {42, 37, 35, 34, 33, 23}, {48, 45, 42, 36, 35, 34, 31, 26}, {45, 42, 37, 32, 31, 30, 28}, {42, 35, 34, 32, 26, 24}, {45, 39, 37, 35, 32, 24}, {37, 31, 22}, {49, 48, 45, 42, 37, 32, 28}, {49, 42, 41, 36, 30}, {48, 45, 28}, {57, 49, 48, 46, 41, 40, 36}, {57, 42, 41, 40, 38, 33}, {49, 39, 38, 37}, {59, 49, 46, 44, 41, 37}, {41, 40, 39, 36}, {50, 41, 39, 37}, {57, 51, 50, 48, 40, 39}, {51, 50, 49, 46, 40, 39}, {44, 41, 40, 38}, {51, 50, 49, 46, 44, 43}, {49, 43, 41, 38}, {57, 44, 43, 38}, {44, 43, 38}, {57, 51, 40}, {66, 58, 56, 55, 54, 53, 52, 51, 50}, {56, 44, 43}, {64, 43}, {55, 52, 51, 47}, {55, 52, 51, 47}, {61, 55, 52, 47}, {66, 64, 62, 61, 58, 54, 53, 52}, {66, 60, 57, 54, 53, 51}, {66, 64, 62, 61, 56, 53}, {66, 63, 62, 58, 54, 53}, {71, 61, 60, 54}, {69, 67, 66, 62, 61, 60}, {67, 64, 62, 61, 59}, {79, 71, 69, 67, 62, 61}, {73, 67, 63, 60}, {79, 77, 71, 70, 69, 68, 67, 65}, {79, 75, 73, 70, 69, 68, 67}, {81, 77, 74, 70, 60}, {81, 77, 73, 70, 60}, {81, 77, 75, 74, 72, 70, 69, 68}, {86, 79, 77, 74, 72, 71, 70}, {79, 77, 75, 74, 70, 69, 68}, {89, 79, 78, 72, 68}, {78, 77, 75, 70, 68}, {100, 89, 86, 83, 81, 80, 77, 72}, {81, 77, 70, 69}, {100, 89, 86, 82, 80, 78, 77, 76}, {89, 86, 83, 81, 80, 72}, {89, 78, 77, 74}, {88, 86, 85, 83, 81, 74}, {100, 86, 85, 84, 83, 80, 76}, {100, 89, 85, 83, 82, 80, 76}, {100, 97, 85, 84, 83, 82, 76}, {99, 98, 89, 87, 85, 83, 82, 81, 80}, {97, 85, 84, 82, 76}, {97, 85, 82, 76}, {99, 98, 94, 93, 87, 84, 82, 80}, {99, 97, 96, 94, 88, 83, 82}, {99, 98, 96, 95, 94, 93, 92, 88, 87}, {98, 93, 92, 88, 87, 85}, {97, 94, 84, 83}, {98, 97, 95, 93, 90, 85}, {97, 95, 92, 91, 90}, {96, 93, 91, 90}, {92, 91, 90}, {95, 93, 92}, {96, 92, 90}, {94, 91}, {91, 90}, {90}, {91}, {91}, {}, {}, {}, {}, {}, {}, {}, {}, {}, {}, {}];
n_opt = 300;
dur = [5, 6, 8, 1, 5, 8, 4, 8, 10, 1, 8, 9, 3, 5, 9, 8, 9, 10, 1, 2, 10, 2, 3, 7, 5, 6, 8, 8, 9, 10, 1, 5, 6, 1, 2, 10, 1, 2, 3, 1, 3, 9, 2, 4, 6, 1, 3, 10, 4, 5, 10, 1, 5, 10, 1, 2, 5, 6, 8, 9, 3, 5, 8, 1, 8, 9, 3, 4, 9, 1, 6, 10, 4, 5, 10, 1, 3, 5, 1, 3, 8, 4, 6, 10, 6, 8, 10, 1, 4, 9, 4, 6, 7, 4, 5, 6, 1, 2, 6, 1, 5, 6, 2, 3, 5, 2, 4, 9, 5, 6, 8, 5, 7, 10, 1, 2, 10, 2, 7, 10, 4, 5, 8, 2, 7, 8, 5, 8, 9, 1, 4, 7, 1, 2, 3, 1, 2, 7, 1, 5, 10, 2, 9, 10, 6, 9, 10, 2, 4, 7, 1, 2, 5, 4, 5, 6, 7, 8, 9, 2, 3, 6, 5, 7, 8, 2, 4, 5, 1, 4, 7, 3, 4, 5, 7, 8, 10, 4, 6, 8, 1, 8, 10, 3, 4, 8, 3, 7, 10, 1, 5, 8, 2, 5, 8, 2, 8, 9, 1, 6, 7, 4, 6, 9, 1, 4, 6, 2, 6, 9, 3, 7, 8, 2, 6, 9, 2, 3, 10, 2, 3, 7, 1, 5, 7, 7, 9, 10, 6, 8, 10, 5, 6, 8, 1, 3, 4, 7, 9, 10, 1, 2, 3, 3, 6, 8, 2, 5, 9, 2, 3, 10, 2, 3, 7, 2, 7, 8, 4, 5, 8, 1, 3, 6, 2, 3, 10, 2, 3, 6, 1, 8, 9, 7, 8, 9, 2, 3, 10, 8, 9, 10, 2, 4, 6, 4, 9, 10, 1, 8, 9, 5, 9, 10, 1, 7, 8, 2, 8, 10];
rreq = [|5, 5, 5, 5, 4, 3, 3, 3, 3, 3, 2, 2, 5, 4, 4, 4, 4, 4, 1, 1, 1, 5, 5, 5, 2, 2, 2, 5, 4, 2, 4, 4, 3, 3, 1, 1, 4, 2, 2, 3, 3, 2, 5, 3, 3, 4, 3, 3, 3, 3, 3, 4, 4, 3, 4, 4, 4, 4, 3, 2, 4, 2, 2, 2, 2, 2, 4, 3, 1, 4, 4, 3, 2, 2, 2, 5, 4, 3, 4, 2, 1, 2, 2, 2, 4, 3, 3, 3, 3, 1, 2, 2, 2, 4, 3, 3, 4, 4, 4, 1, 1, 1, 2, 2, 2, 3, 2, 2, 1, 1, 1, 3, 2, 2, 4, 4, 4, 5, 4, 4, 1, 1, 1, 4, 4, 3, 4, 3, 2, 5, 4, 4, 5, 4, 3, 3, 2, 1, 5, 5, 5, 3, 2, 2, 4, 4, 4, 4, 3, 1, 3, 3, 2, 4, 4, 3, 4, 3, 3, 3, 2, 2, 2, 2, 2, 1, 1, 1, 4, 4, 4, 5, 3, 3, 3, 3, 2, 4, 3, 2, 1, 1, 1, 3, 3, 3, 3, 3, 3, 4, 3, 3, 2, 2, 1, 3, 1, 1, 5, 3, 3, 4, 4, 2, 3, 3, 3, 3, 2, 2, 4, 2, 2, 4, 4, 4, 5, 3, 3, 1, 1, 1, 2, 2, 2, 5, 3, 2, 4, 3, 2, 4, 3, 2, 3, 3, 2, 2, 2, 1, 4, 4, 2, 1, 1, 1, 4, 3, 1, 4, 4, 4, 1, 1, 1, 4, 4, 4, 5, 3, 3, 2, 2, 2, 1, 1, 1, 3, 3, 3, 2, 1, 1, 5, 5, 5, 4, 4, 4, 5, 4, 3, 3, 2, 2, 5, 4, 4, 5, 4, 3, 4, 4, 4, 5, 4, 3, 5, 3, 2
 |3, 3, 3, 4, 4, 4, 5, 3, 3, 3, 3, 2, 4, 4, 3, 5, 5, 5, 5, 5, 5, 5, 5, 5, 3, 3, 1, 4, 3, 3, 2, 2, 2, 4, 3, 3, 3, 2, 2, 3, 2, 1, 1, 1, 1, 2, 2, 2, 2, 1, 1, 3, 2, 2, 3, 3, 3, 5, 3, 2, 2, 2, 2, 2, 2, 1, 1, 1, 1, 3, 3, 2, 5, 5, 5, 4, 3, 2, 2, 2, 2, 2, 2, 2, 4, 4, 2, 4, 2, 2, 3, 3, 3, 3, 2, 1, 4, 4, 4, 3, 3, 3, 4, 3, 3, 4, 4, 3, 4, 4, 4, 5, 4, 2, 3, 3, 3, 4, 4, 2, 5, 5, 5, 4, 4, 4, 4, 4, 4, 4, 4, 4, 4, 3, 1, 4, 3, 2, 4, 3, 2, 5, 4, 4, 3, 2, 2, 3, 3, 3, 2, 1, 1, 4, 2, 2, 5, 3, 2, 5, 3, 2, 3, 2, 2, 5, 5, 5, 1, 1, 1, 4, 2, 1, 4, 4, 3, 1, 1, 1, 5, 3, 3, 1, 1, 1, 3, 3, 3, 3, 2, 2, 4, 4, 4, 3, 2, 1, 3, 3, 2, 3, 3, 2, 2, 2, 2, 4, 3, 3, 4, 3, 2, 5, 4, 3, 3, 3, 2, 1, 1, 1, 4, 3, 3, 5, 3, 2, 5, 4, 3, 4, 4, 3, 4, 3, 1, 4, 3, 3, 3, 3, 2, 5, 4, 4, 2, 2, 2, 1, 1, 1, 4, 2, 2, 3, 3, 1, 2, 1, 1, 4, 3, 3, 3, 3, 3, 4, 3, 3, 3, 3, 2, 2, 1, 1, 4, 3, 2, 4, 3, 3, 3, 2, 2, 5, 5, 5, 4, 3, 3, 4, 4, 3, 3, 3, 1, 3, 3, 2
 |5, 5, 5, 5, 4, 3, 7, 7, 6, 8, 6, 6, 5, 4, 3, 7, 5, 4, 6, 6, 5, 5, 3, 3, 2, 1, 1, 7, 4, 4, 4, 3, 2, 9, 9, 8, 6, 6, 1, 2, 1, 1, 10, 9, 7, 5, 3, 2, 5, 5, 5, 5, 4, 4, 8, 7, 5, 2, 2, 2, 5, 4, 3, 7, 3, 2, 5, 4, 3, 7, 7, 5, 4, 4, 4, 5, 3, 3, 9, 8, 7, 5, 3, 2, 6, 4, 2, 9, 4, 4, 9, 7, 7, 5, 5, 5, 7, 6, 6, 8, 8, 7, 5, 4, 4, 9, 8, 8, 4, 4, 4, 9, 3, 3, 9, 6, 4, 9, 9, 8, 1, 1, 1, 6, 4, 2, 9, 8, 7, 4, 4, 2, 9, 4, 4, 6, 5, 3, 8, 8, 8, 7, 4, 4, 8, 8, 7, 7, 7, 6, 8, 5, 3, 2, 2, 2, 5, 5, 5, 2, 2, 2, 5, 5, 5, 8, 7, 6, 8, 6, 2, 6, 4, 2, 1, 1, 1, 6, 5, 5, 6, 3, 3, 8, 6, 5, 6, 4, 4, 6, 4, 3, 10, 9, 9, 7, 6, 4, 5, 4, 1, 4, 4, 2, 6, 5, 5, 6, 6, 4, 7, 4, 4, 7, 7, 7, 8, 7, 6, 4, 3, 3, 3, 2, 2, 4, 4, 3, 9, 9, 9, 10, 6, 6, 9, 7, 4, 5, 3, 2, 7, 7, 7, 5, 5, 3, 5, 2, 2, 6, 6, 5, 3, 2, 1, 8, 7, 6, 8, 8, 7, 1, 1, 1, 6, 5, 5, 5, 4, 3, 6, 5, 4, 10, 8, 8, 5, 3, 2, 10, 9, 9, 8, 7, 5, 8, 8, 8, 6, 6, 6, 10, 10, 10, 8, 7, 7, 10, 8, 7
 |5, 3, 1, 10, 8, 7, 4, 3, 3, 2, 2, 2, 6, 6, 6, 4, 4, 4, 8, 4, 3, 6, 4, 3, 2, 1, 1, 6, 4, 3, 7, 7, 6, 3, 3, 1, 6, 5, 3, 9, 8, 8, 7, 6, 6, 4, 4, 3, 5, 5, 4, 8, 5, 3, 4, 4, 3, 8, 4, 3, 7, 7, 7, 7, 6, 6, 5, 3, 3, 9, 8, 8, 10, 9, 8, 9, 8, 8, 10, 6, 4, 4, 2, 2, 8, 8, 8, 9, 8, 7, 4, 3, 2, 9, 8, 8, 3, 3, 2, 8, 7, 7, 5, 5, 4, 8, 7, 7, 10, 4, 2, 5, 5, 5, 4, 3, 1, 7, 4, 3, 7, 6, 5, 9, 8, 8, 7, 5, 2, 8, 6, 6, 9, 9, 8, 9, 6, 6, 10, 7, 6, 7, 5, 4, 10, 10, 10, 7, 5, 3, 9, 9, 9, 9, 5, 1, 1, 1, 1, 5, 3, 3, 7, 7, 6, 9, 6, 4, 3, 1, 1, 6, 4, 4, 2, 1, 1, 9, 5, 4, 3, 3, 2, 6, 5, 3, 5, 5, 4, 3, 1, 1, 7, 5, 4, 9, 7, 5, 7, 5, 3, 8, 7, 8, 9, 8, 7, 6, 3, 1, 3, 1, 1, 7, 7, 7, 5, 4, 3, 8, 7, 6, 9, 7, 5, 7, 6, 6, 7, 7, 5, 7, 4, 4, 10, 7, 5, 8, 7, 7, 7, 6, 4, 9, 8, 5, 9, 7, 7, 9, 8, 8, 7, 5, 5, 6, 6, 5, 2, 1, 1, 6, 3, 2, 8, 7, 6, 10, 9, 9, 7, 5, 4, 9, 8, 7, 7, 5, 2, 5, 4, 3, 4, 2, 2, 6, 6, 3, 8, 7, 6, 6, 5, 5, 7, 6, 3, 7, 4, 2|];